100 4 100
77 80 56 44 51 2 11 50 74 66 7 4 48 47 9 61 11 64 92 14 98 97 87 22 34 24 1 96 1 13 93 78 45 50 22 96 52 86 99 26 52 6 82 54 91 13 17 55 57 31 54 54 70 28 40 46 29 88 47 94 82 26 39 84 87 36 86 86 15 38 45 49 38 51 41 3 68 48 60 99 2 66 21 82 7 67 63 47 15 57 29 93 48 13 93 36 2 80 74 69 
